30
500 500 500 
348 220 250
255 184 270
191 249 168
212 194 315
348 322 145
171 369 221
206 327 348
221 277 191
250 202 206
205 226 212
193 280 145
364 311 350
264 224 315
244 347 212
270 338 348
224 236 193
168 177 224
285 347 255
315 294 284
247 219 350
315 302 129
129 147 212
268 273 285
350 352 250
186 258 350
365 374 285
145 259 146
284 184 168
129 198 268
146 351 285
gcut7_3d
